10483.57,58.02,71.97
10540.35,57.7,71.58
9655.31,62.99,78.14
10008.1,60.77,75.39
9792.73,62.11,77.05
10110.71,60.16,74.62
9978.7,60.95,75.61
10031.29,60.63,75.21
10212.58,59.56,73.88
11255.8,54.04,67.03
10203.58,59.61,73.94
10272.98,59.21,73.44
11025.73,55.16,68.43
8920.34,68.18,84.58
9743.45,62.42,77.44
10236.69,59.42,73.7
10549.28,57.65,71.52
9197.03,66.13,82.04
9532.68,63.8,79.15
10212.92,59.55,73.88
